% demand
num_movements = 28;
loading_factor = [1550, 1200, 1350, 1000, 800, 1350, 1750, 950, 1000, 1350, 1200, 1050, 1700, 800, 1450, 1000, 1000, 1450, 1600, 800, 900, 900, 1200, 1450, 1750, 1000, 1550, 1900];
pickup_time = [0, 0, 0, 0, 0, 0, 0, 0, 0, 1, 1, 1, 1, 1, 1, 1, 1, 1, 2, 2, 2, 2, 2, 3, 4, 4, 4, 4];
delivery_time = [1, 1, 1, 1, 1, 1, 1, 1, 1, 2, 2, 6, 2, 3, 2, 2, 2, 2, 5, 3, 3, 3, 3, 5, 5, 6, 6, 6];

% transporter definition
total_capacity = 11000;
num_decks = 4;
capacity = [3000, 3000, 1000, 4000];

% ways out of decks
num_ways_out = 2;
paths_out = array3d(decks, ways_out, decks, [
% ways out of deck d1
2, 4, 0, 0, 3, 4, 0, 0, 

% ways out of deck d2
4, 0, 0, 0, 0, 0, 0, 0,	

% ways out of deck d3
4, 0, 0, 0, 0, 0, 0, 0,	

% ways out of deck d4
0, 0, 0, 0,	0, 0, 0, 0,	

]);

